NAME : it30
COMMENT : 30 locations in Italy
COMMENT : Derived from National Imagery and Mapping Agency data
TYPE : TSP
DIMENSION : 30
EDGE_WEIGHT_TYPE : EUC_2D
NODE_COORD_SECTION
1 45.485897 9.124785
2 45.485828 9.125066
3 45.485779 9.125238
4 45.485676 9.125448
5 45.485653 9.125744
6 45.485600 9.125970
7 45.485515 9.126307
8 45.485172 9.127165
9 45.485032 9.127737
10 45.484941 9.128032
11 45.484937 9.128362
12 45.484739 9.129014
13 45.484623 9.129677
14 45.484400 9.130241
15 45.484328 9.130614
16 45.484318 9.131135
17 45.483984 9.131898
18 45.483991 9.132340
19 45.483818 9.133062
20 45.483776 9.133386
21 45.483506 9.133967
22 45.483300 9.134675
23 45.483329 9.135165
24 45.483044 9.135746
25 45.482981 9.136510
26 45.482907 9.136869
27 45.482710 9.137236
28 45.482391 9.138415
29 45.482358 9.139071
30 45.482276 9.139418
